SPARKNaCl/why3-z3/sparknacl-hashing-sha2_common.adb_76_22_assert_1.smt2
;; produced by z3_gnatprove.drv ;;
(set-info :smt-lib-version 2.5)
(set-info :source |VC generated by SPARK 2014|)
(set-info :category industrial)
(set-info :status unknown)
;;; generated by SMT-LIB2 driver
;;; SMT-LIB2 driver: bit-vectors, common part
;;; SMT-LIB2: integer arithmetic
(declare-datatypes ()
  ((t__ref (t__refqtmk (t__content (_ BitVec 64))))))

(declare-const input (_ BitVec 64))

(declare-sort byte 0)

(declare-datatypes ()
  ((byte__init_wrapper
   (byte__init_wrapperqtmk (rec__value byte)(us_attr__init Bool)))))

;; "big_endian_get_byte"
(declare-fun big_endian_get_byte ((_ BitVec 64)
  Int) (_ BitVec 8))

;; "big_endian_get_byte__function_guard"
(declare-fun big_endian_get_byte__function_guard ((_ BitVec 8)
  (_ BitVec 64)
  Int) Bool)

(declare-sort map1 0)

(declare-datatypes ()
  ((map__ref (map__refqtmk (map__content map1)))))

;; "has_bounds"
(declare-fun has_bounds (map1
  Int
  Int) Bool)

;; "get"
(declare-fun get (map1
  Int) byte__init_wrapper)

;; "set"
(declare-fun set (map1
  Int
  byte__init_wrapper) map1)

;; "set_eq"
(assert
  (forall ((a map1) (i Int) (v byte__init_wrapper))
    (! (= (get (set a i v) i) v) :pattern ((set a i v)) )))

;; "set_neq"
(assert
  (forall ((a map1) (i Int) (v byte__init_wrapper))
    (! (forall ((j Int))
         (! (=> (not (= i j)) (= (get (set a i v) j) (get a j))) :pattern (
         (get
           a
           j)) :pattern ((get (set a i v) j)) )) :pattern ((set a i v)) )))

;; "set_has_bounds"
(assert
  (forall ((a map1) (i Int) (f Int) (l Int) (v byte__init_wrapper))
    (! (=>
         (and (<= f i) (<= i l))
         (=> (has_bounds a f l) (has_bounds (set a i v) f l))) :pattern (
    (has_bounds
      (set a i v)
      f
      l)) )))

;; "to_rep"
(declare-fun to_rep (byte) (_ BitVec 8))

;; "of_rep"
(declare-fun of_rep ((_ BitVec 8)) byte)

;; "inversion_axiom"
(assert
  (forall ((x byte)) (! (= (of_rep (to_rep x)) x) :pattern ((to_rep x)) )))

;; "range_axiom"
(assert true)

;; "coerce_axiom"
(assert
  (forall ((x (_ BitVec 8)))
    (! (= (to_rep (of_rep x)) x) :pattern ((to_rep (of_rep x))) )))

;; "in_range"
(define-fun in_range ((x Int)) Bool
  (and (<= 0 x) (<= x 7)))

(declare-sort tinteger_32B 0)

;; "tinteger_32B'int"
(declare-fun tinteger_32Bqtint (tinteger_32B) Int)

;; "tinteger_32B'axiom"
(assert
  (forall ((i tinteger_32B))
    (and
      (<= (- 2147483648) (tinteger_32Bqtint i))
      (<= (tinteger_32Bqtint i) 2147483647))))

;; "in_range"
(define-fun in_range1 ((x Int)) Bool
  (and (<= (- 2147483648) x) (<= x 2147483647)))

;; "to_rep"
(define-fun to_rep1 ((x tinteger_32B)) Int
  (tinteger_32Bqtint x))

;; "of_rep"
(declare-fun of_rep1 (Int) tinteger_32B)

;; "inversion_axiom"
(assert
  (forall ((x tinteger_32B))
    (! (= (of_rep1 (to_rep1 x)) x) :pattern ((to_rep1 x)) )))

;; "range_axiom"
(assert
  (forall ((x tinteger_32B))
    (! (in_range1 (to_rep1 x)) :pattern ((to_rep1 x)) )))

;; "coerce_axiom"
(assert
  (forall ((x Int))
    (! (=> (in_range1 x) (= (to_rep1 (of_rep1 x)) x)) :pattern ((to_rep1
                                                                  (of_rep1 x))) )))

;; "big_endian_get_byte__post_axiom"
(assert
  (forall ((param__input (_ BitVec 64)))
    (forall ((param__index Int))
      (! (=>
           (in_range param__index)
           (let ((result (big_endian_get_byte param__input param__index)))
             (=>
               (big_endian_get_byte__function_guard
                 result
                 param__input
                 param__index)
               (= result ((_ extract 7 0) (bvurem (bvlshr param__input ((_ int2bv 64) (* (- 7 param__index) 8))) #x0000000000000100)))))) :pattern (
      (big_endian_get_byte
        param__input
        param__index)) ))))

(declare-const output map1)

;; "output'unused"
(define-fun outputqtunused () map__ref
  (map__refqtmk output))

;; "Assume"
(assert true)

;; "Assume"
(assert (has_bounds output 0 7))

(declare-const x (_ BitVec 64))

;; "x'unused"
(define-fun xqtunused () t__ref
  (t__refqtmk x))

;; "H"
(assert (= x input))

;; "Assume"
(assert true)

;; "t__content'result'unused"
(define-fun t__contentqtresultqtunused () (_ BitVec 64)
  x)

;; "o"
(define-fun o () (_ BitVec 64)
  (bvurem x #x0000000000000100))

;; "urem_'result'unused"
(define-fun urem_qtresultqtunused () (_ BitVec 64)
  o)

;; "o"
(define-fun o1 () (_ BitVec 64)
  ((_ zero_extend 56) #xFF))

;; "toBig'result'unused"
(define-fun toBigqtresultqtunused () (_ BitVec 64)
  o1)

;; "o"
(define-fun o2 () (_ BitVec 64)
  ((_ zero_extend 56) #x00))

;; "toBig'result'unused"
(define-fun toBigqtresultqtunused1 () (_ BitVec 64)
  o2)

;; "range_check_'result'unused"
(define-fun range_check_qtresultqtunused () (_ BitVec 64)
  o)

;; "o"
(define-fun o3 () (_ BitVec 8)
  ((_ extract 7 0) o))

;; "toSmall'result'unused"
(define-fun toSmallqtresultqtunused () (_ BitVec 8)
  o3)

(declare-const o4 byte)

;; "Ensures"
(assert (= (to_rep o4) o3))

;; "of_rep'result'unused"
(define-fun of_repqtresultqtunused () byte
  o4)

;; "o"
(define-fun o5 () byte__init_wrapper
  (byte__init_wrapperqtmk o4 true))

;; "to_wrapper'result'unused"
(define-fun to_wrapperqtresultqtunused () byte__init_wrapper
  o5)

;; "map__content'result'unused"
(define-fun map__contentqtresultqtunused () map1
  output)

;; "o"
(define-fun o6 () map1
  (set output 7 o5))

;; "set'result'unused"
(define-fun setqtresultqtunused () map1
  o6)

(declare-const output1 map1)

;; "output'unused"
(define-fun outputqtunused1 () map__ref
  (map__refqtmk output1))

;; "H"
(assert (= output1 o6))

;; "Assert"
(assert (= (us_attr__init (get output1 7)) true))

;; "H"
(assert
  (big_endian_get_byte__function_guard (big_endian_get_byte input 7) input 7))

;; Goal "def'vc"
;; File "sparknacl-hashing-sha2_common.ads", line 10, characters 0-0
(assert
  (not
  (= (to_rep (rec__value (get output1 7))) (big_endian_get_byte input 7))))

(check-sat)
